Test: battleship-08-15-sat.cnf
Options: -no-inverting-opt -sym-usage-var-bump
WARNING: for repeatability, setting FPU to use double precision
============================[ Problem Statistics ]=============================
|                                                                             |
|  Number of symmetries:           14                                         |
|  Number of invertingSyms:         0                                         |
|  Number of variables:           120                                         |
|  Number of clauses:             484                                         |
|  Parse time:                   0.00 s                                       |
|                                                                             |
============================[ Search Statistics ]==============================
| Conflicts |          ORIGINAL         |          LEARNT          | Progress |
|           |    Vars  Clauses Literals |    Limit  Clauses Lit/Cl |          |
===============================================================================
|       100 |     120      484     1800 |      177      158     56 |  0.007 % |
===============================================================================
restarts              : 2
conflicts             : 168            (inf /sec)
symconflicts          : 19             (inf /sec)
decisions             : 345            (0.00 % random) (inf /sec)
propagations          : 2173           (inf /sec)
sympropagations       : 69             (inf /sec)
conflict literals     : 8348           (0.37 % deleted)
literals     : 8348           (0.37 % deleted)

HEURISTIC USAGES
random                : 0           
activity w/ lookahead : 0           
activity no lookahead : 0           
original sp           : 344         
sym count             : 0           

Memory used           : 5.00 MB
CPU time              : 0 s

SATISFIABLE
